################### Instance Number: 11
Numero di nodi nella rete: 50
Numero di archi nella rete: 447
Numero di Ordini: 500
########################### CREATION OF THE ILP MODEL ############################
Start TIME to creation of the model: 2016-07-14 14:56:13.018000
FINISH TIME to creation of the model: 2016-07-14 14:57:01.347000
Impiegati 48.3289999962 secondi.
########################### WRITE THE LP MODEL ############################
############################ INIZIO A RISOLVERE IL PROBLEMA ##########################

Gurobi Optimizer version 6.5.1 build v6.5.1rc3 (win64)
Copyright (c) 2016, Gurobi Optimization, Inc.

Read LP format model from file C:\Users\Trappola\AppData\Local\Temp\1196-pulp.lp
Reading time = 2.00 seconds
(null): 25947 rows, 223500 columns, 894000 nonzeros
Optimize a model with 25947 rows, 223500 columns and 894000 nonzeros
Coefficient statistics:
  Matrix range    [1e+00, 1e+01]
  Objective range [1e+01, 3e+03]
  Bounds range    [1e+00, 1e+00]
  RHS range       [1e+00, 2e+02]
Found heuristic solution: objective 5.28176e+06
Presolve time: 2.60s
Presolved: 25947 rows, 223500 columns, 848000 nonzeros
Variable types: 0 continuous, 223500 integer (223500 binary)

Root relaxation: objective 9.485104e+05, 5695 iterations, 0.27 seconds

    Nodes    |    Current Node    |     Objective Bounds      |     Work
 Expl Unexpl |  Obj  Depth IntInf | Incumbent    BestBd   Gap | It/Node Time

     0     0 948510.367    0  208 5281762.14 948510.367  82.0%     -    3s
H    0     0                    959694.81610 948510.367  1.17%     -    4s
H    0     0                    958873.53840 948510.367  1.08%     -    5s
H    0     0                    955905.90090 948510.367  0.77%     -    6s
H    0     0                    955605.57370 948510.367  0.74%     -    8s
     0     0 951312.832    0  240 955605.574 951312.832  0.45%     -   10s
     0     0 951813.797    0  258 955605.574 951813.797  0.40%     -   10s
     0     0 953300.007    0  326 955605.574 953300.007  0.24%     -   12s
     0     0 953874.197    0  349 955605.574 953874.197  0.18%     -   13s
     0     0 954443.738    0  279 955605.574 954443.738  0.12%     -   15s
     0     0 954443.738    0  195 955605.574 954443.738  0.12%     -   21s
H    0     0                    955598.14780 954443.738  0.12%     -   22s
     0     0 954443.738    0  246 955598.148 954443.738  0.12%     -   24s
     0     0 954443.738    0  340 955598.148 954443.738  0.12%     -   26s
     0     0 954443.738    0  349 955598.148 954443.738  0.12%     -   27s
     0     0 954472.299    0  354 955598.148 954472.299  0.12%     -   28s
     0     0 954853.272    0  314 955598.148 954853.272  0.08%     -   30s
     0     0 954853.272    0  149 955598.148 954853.272  0.08%     -   33s
     0     0 954853.272    0  206 955598.148 954853.272  0.08%     -   34s
     0     0 954853.272    0  299 955598.148 954853.272  0.08%     -   35s
     0     0 954853.272    0  337 955598.148 954853.272  0.08%     -   36s
     0     0 954859.956    0  309 955598.148 954859.956  0.08%     -   37s
     0     0 955065.910    0  236 955598.148 955065.910  0.06%     -   37s
     0     0 955065.910    0  108 955598.148 955065.910  0.06%     -   39s
     0     0 955065.910    0  176 955598.148 955065.910  0.06%     -   40s
     0     0 955065.910    0  200 955598.148 955065.910  0.06%     -   40s
     0     0 955065.910    0  255 955598.148 955065.910  0.06%     -   40s
     0     0 955065.910    0  194 955598.148 955065.910  0.06%     -   40s
     0     0 955111.450    0  229 955598.148 955111.450  0.05%     -   41s
     0     0 955111.450    0   87 955598.148 955111.450  0.05%     -   42s
     0     0 955111.450    0  132 955598.148 955111.450  0.05%     -   42s
     0     0 955111.450    0  218 955598.148 955111.450  0.05%     -   42s
     0     0 955111.450    0  260 955598.148 955111.450  0.05%     -   43s
     0     0 955115.919    0  160 955598.148 955115.919  0.05%     -   43s
     0     0 955171.032    0  188 955598.148 955171.032  0.04%     -   43s
     0     0 955171.032    0   63 955598.148 955171.032  0.04%     -   44s
     0     0 955171.032    0   83 955598.148 955171.032  0.04%     -   44s
     0     0 955171.032    0  152 955598.148 955171.032  0.04%     -   44s
     0     0 955171.032    0  193 955598.148 955171.032  0.04%     -   44s
     0     0 955171.032    0  139 955598.148 955171.032  0.04%     -   44s
     0     0 955188.878    0  144 955598.148 955188.878  0.04%     -   45s
     0     0 955248.369    0  134 955598.148 955248.369  0.04%     -   45s
     0     0 955287.537    0  201 955598.148 955287.537  0.03%     -   45s
     0     0 955287.537    0   52 955598.148 955287.537  0.03%     -   45s
     0     0 955287.537    0   87 955598.148 955287.537  0.03%     -   45s
     0     0 955287.537    0  133 955598.148 955287.537  0.03%     -   46s
     0     0 955287.537    0  111 955598.148 955287.537  0.03%     -   46s
     0     0 955287.537    0  150 955598.148 955287.537  0.03%     -   46s
     0     0 955287.537    0  121 955598.148 955287.537  0.03%     -   46s
H    0     0                    955466.42600 955287.537  0.02%     -   46s
     0     0 955287.537    0  130 955466.426 955287.537  0.02%     -   46s
     0     0 955287.537    0   60 955466.426 955287.537  0.02%     -   46s
     0     0 955287.537    0   47 955466.426 955287.537  0.02%     -   46s
     0     0 955287.537    0   77 955466.426 955287.537  0.02%     -   46s
     0     0 955287.537    0   80 955466.426 955287.537  0.02%     -   46s
     0     0 955287.537    0  108 955466.426 955287.537  0.02%     -   46s
     0     0 955287.537    0   52 955466.426 955287.537  0.02%     -   46s
     0     0 955287.537    0   78 955466.426 955287.537  0.02%     -   46s
     0     0 955287.537    0   63 955466.426 955287.537  0.02%     -   47s
     0     0 955287.537    0   72 955466.426 955287.537  0.02%     -   47s
     0     0 955287.537    0   45 955466.426 955287.537  0.02%     -   47s
     0     0 955287.537    0   74 955466.426 955287.537  0.02%     -   47s
     0     0 955287.537    0   80 955466.426 955287.537  0.02%     -   47s
     0     0 955287.537    0  105 955466.426 955287.537  0.02%     -   47s
     0     0 955287.537    0   79 955466.426 955287.537  0.02%     -   47s
     0     0 955287.537    0   69 955466.426 955287.537  0.02%     -   47s
     0     0 955287.537    0   79 955466.426 955287.537  0.02%     -   47s
     0     0 955288.133    0  112 955466.426 955288.133  0.02%     -   47s
     0     0 955288.133    0   38 955466.426 955288.133  0.02%     -   47s
     0     0 955288.133    0   54 955466.426 955288.133  0.02%     -   47s
     0     0 955288.133    0   79 955466.426 955288.133  0.02%     -   47s
     0     0 955288.133    0   96 955466.426 955288.133  0.02%     -   47s
     0     0 955288.133    0   65 955466.426 955288.133  0.02%     -   47s
     0     0 955288.133    0   75 955466.426 955288.133  0.02%     -   47s
     0     0 955288.133    0   66 955466.426 955288.133  0.02%     -   47s
     0     0 955310.917    0   48 955466.426 955310.917  0.02%     -   47s
     0     0 955317.449    0   47 955466.426 955317.449  0.02%     -   47s
     0     0 955341.235    0   78 955466.426 955341.235  0.01%     -   47s
     0     0 955341.235    0   30 955466.426 955341.235  0.01%     -   47s
     0     0 955341.235    0   40 955466.426 955341.235  0.01%     -   47s
     0     0 955341.235    0   46 955466.426 955341.235  0.01%     -   47s
     0     0 955341.235    0   72 955466.426 955341.235  0.01%     -   47s
     0     0 955341.235    0   38 955466.426 955341.235  0.01%     -   47s
     0     0 955341.235    0   63 955466.426 955341.235  0.01%     -   47s
     0     0 955341.235    0   45 955466.426 955341.235  0.01%     -   47s
     0     0 955341.235    0   51 955466.426 955341.235  0.01%     -   47s
     0     0 955359.037    0   50 955466.426 955359.037  0.01%     -   47s
     0     0 955364.306    0   49 955466.426 955364.306  0.01%     -   47s
     0     0 955365.038    0   46 955466.426 955365.038  0.01%     -   47s
     0     0 955370.315    0   51 955466.426 955370.315  0.01%     -   47s
     0     0 955419.593    0   47 955466.426 955419.593  0.00%     -   47s

Cutting planes:
  Gomory: 7
  Cover: 53
  Clique: 3
  MIR: 39
  GUB cover: 12

Explored 0 nodes (33348 simplex iterations) in 47.96 seconds
Thread count was 8 (of 8 available processors)

Optimal solution found (tolerance 1.00e-04)
Best objective 9.554664260000e+05, best bound 9.554195930396e+05, gap 0.0049%

Wrote result file 'C:\Users\Trappola\AppData\Local\Temp\1196-pulp.sol'

('Status:', 'Optimal')
('Total Cost of Ingredients per can = ', 955466.426000001)
